(set-info :smt-lib-version 2.6)
(set-info :category "crafted")
(set-logic QF_FF)
(define-sort FF0 () (_ FiniteField 52435875175126190479447740508185965837690552500527637822603658699938581184513))
(declare-fun out_alt () FF0)
(declare-fun _29_alt () FF0)
(declare-fun _22_alt () FF0)
(declare-fun _28_alt () FF0)
(declare-fun _2_alt () FF0)
(declare-fun _27_alt () FF0)
(declare-fun _7_alt () FF0)
(declare-fun _26_alt () FF0)
(declare-fun _6_alt () FF0)
(declare-fun _25_alt () FF0)
(declare-fun _0_alt () FF0)
(declare-fun _24_alt () FF0)
(declare-fun _9_alt () FF0)
(declare-fun _1_alt () FF0)
(declare-fun _20_alt () FF0)
(declare-fun _19_alt () FF0)
(declare-fun _3_alt () FF0)
(declare-fun _14_alt () FF0)
(declare-fun _13_alt () FF0)
(declare-fun _5_alt () FF0)
(declare-fun _4_alt () FF0)
(declare-fun out () FF0)
(declare-fun _29 () FF0)
(declare-fun _22 () FF0)
(declare-fun _28 () FF0)
(declare-fun _2 () FF0)
(declare-fun _27 () FF0)
(declare-fun _7 () FF0)
(declare-fun _26 () FF0)
(declare-fun _6 () FF0)
(declare-fun _25 () FF0)
(declare-fun _0 () FF0)
(declare-fun _24 () FF0)
(declare-fun _9 () FF0)
(declare-fun _1 () FF0)
(declare-fun _20 () FF0)
(declare-fun _19 () FF0)
(declare-fun _3 () FF0)
(declare-fun _14 () FF0)
(declare-fun _13 () FF0)
(declare-fun _5 () FF0)
(declare-fun _4 () FF0)
(assert 
  (let ((let0 out_alt))
  (let ((let1 _29_alt))
  (let ((let2 (= let1 let0)))
  (let ((let3 _22_alt))
  (let ((let4 _28_alt))
  (let ((let5 (ff.mul let4 let3)))
  (let ((let6 (= let5 let1)))
  (let ((let7 _2_alt))
  (let ((let8 _27_alt))
  (let ((let9 (ff.mul let8 let7)))
  (let ((let10 (= let9 let4)))
  (let ((let11 _7_alt))
  (let ((let12 _26_alt))
  (let ((let13 (ff.mul let12 let11)))
  (let ((let14 (= let13 let8)))
  (let ((let15 (as ff1 FF0)))
  (let ((let16 (as ff52435875175126190479447740508185965837690552500527637822603658699938581184512 FF0)))
  (let ((let17 _6_alt))
  (let ((let18 (ff.mul let17 let16)))
  (let ((let19 (ff.add let18 let15)))
  (let ((let20 _25_alt))
  (let ((let21 (ff.mul let20 let19)))
  (let ((let22 (= let21 let12)))
  (let ((let23 _0_alt))
  (let ((let24 _24_alt))
  (let ((let25 (ff.mul let24 let23)))
  (let ((let26 (= let25 let20)))
  (let ((let27 _9_alt))
  (let ((let28 _1_alt))
  (let ((let29 (ff.mul let28 let27)))
  (let ((let30 (= let29 let24)))
  (let ((let31 _20_alt))
  (let ((let32 _19_alt))
  (let ((let33 (ff.add let32 let31)))
  (let ((let34 (ff.mul let33 let27)))
  (let ((let35 (= let34 let3)))
  (let ((let36 _3_alt))
  (let ((let37 (ff.mul let36 let16)))
  (let ((let38 (ff.add let37 let15)))
  (let ((let39 (ff.mul let38 let11)))
  (let ((let40 (= let39 let31)))
  (let ((let41 _14_alt))
  (let ((let42 _13_alt))
  (let ((let43 (ff.add let42 let41)))
  (let ((let44 (ff.mul let36 let43)))
  (let ((let45 (= let44 let32)))
  (let ((let46 _5_alt))
  (let ((let47 (ff.mul let7 let16)))
  (let ((let48 (ff.add let47 let15)))
  (let ((let49 (ff.mul let48 let46)))
  (let ((let50 (= let49 let41)))
  (let ((let51 _4_alt))
  (let ((let52 (ff.mul let7 let51)))
  (let ((let53 (= let52 let42)))
  (let ((let54 (ff.mul let27 let16)))
  (let ((let55 (ff.add let28 let36 let54)))
  (let ((let56 (ff.mul let28 let36)))
  (let ((let57 (= let56 let55)))
  (let ((let58 (ff.mul let11 let11)))
  (let ((let59 (= let58 let11)))
  (let ((let60 (ff.mul let17 let17)))
  (let ((let61 (= let60 let17)))
  (let ((let62 (ff.mul let46 let46)))
  (let ((let63 (= let62 let46)))
  (let ((let64 (ff.mul let51 let51)))
  (let ((let65 (= let64 let51)))
  (let ((let66 (ff.mul let36 let36)))
  (let ((let67 (= let66 let36)))
  (let ((let68 (ff.mul let7 let7)))
  (let ((let69 (= let68 let7)))
  (let ((let70 (ff.mul let28 let28)))
  (let ((let71 (= let70 let28)))
  (let ((let72 (ff.mul let23 let23)))
  (let ((let73 (= let72 let23)))
  (let ((let74 (and let73 let71 let69 let67 let65 let63 let61 let59 let57 let53 let50 let45 let40 let35 let30 let26 let22 let14 let10 let6 let2)))
  (let ((let75 out))
  (let ((let76 _29))
  (let ((let77 (= let76 let75)))
  (let ((let78 _22))
  (let ((let79 _28))
  (let ((let80 (ff.mul let79 let78)))
  (let ((let81 (= let80 let76)))
  (let ((let82 _2))
  (let ((let83 _27))
  (let ((let84 (ff.mul let83 let82)))
  (let ((let85 (= let84 let79)))
  (let ((let86 _7))
  (let ((let87 _26))
  (let ((let88 (ff.mul let87 let86)))
  (let ((let89 (= let88 let83)))
  (let ((let90 _6))
  (let ((let91 (ff.mul let90 let16)))
  (let ((let92 (ff.add let91 let15)))
  (let ((let93 _25))
  (let ((let94 (ff.mul let93 let92)))
  (let ((let95 (= let94 let87)))
  (let ((let96 _0))
  (let ((let97 _24))
  (let ((let98 (ff.mul let97 let96)))
  (let ((let99 (= let98 let93)))
  (let ((let100 _9))
  (let ((let101 _1))
  (let ((let102 (ff.mul let101 let100)))
  (let ((let103 (= let102 let97)))
  (let ((let104 _20))
  (let ((let105 _19))
  (let ((let106 (ff.add let105 let104)))
  (let ((let107 (ff.mul let106 let100)))
  (let ((let108 (= let107 let78)))
  (let ((let109 _3))
  (let ((let110 (ff.mul let109 let16)))
  (let ((let111 (ff.add let110 let15)))
  (let ((let112 (ff.mul let111 let86)))
  (let ((let113 (= let112 let104)))
  (let ((let114 _14))
  (let ((let115 _13))
  (let ((let116 (ff.add let115 let114)))
  (let ((let117 (ff.mul let109 let116)))
  (let ((let118 (= let117 let105)))
  (let ((let119 _5))
  (let ((let120 (ff.mul let82 let16)))
  (let ((let121 (ff.add let120 let15)))
  (let ((let122 (ff.mul let121 let119)))
  (let ((let123 (= let122 let114)))
  (let ((let124 _4))
  (let ((let125 (ff.mul let82 let124)))
  (let ((let126 (= let125 let115)))
  (let ((let127 (ff.mul let100 let16)))
  (let ((let128 (ff.add let101 let109 let127)))
  (let ((let129 (ff.mul let101 let109)))
  (let ((let130 (= let129 let128)))
  (let ((let131 (ff.mul let86 let86)))
  (let ((let132 (= let131 let86)))
  (let ((let133 (ff.mul let90 let90)))
  (let ((let134 (= let133 let90)))
  (let ((let135 (ff.mul let119 let119)))
  (let ((let136 (= let135 let119)))
  (let ((let137 (ff.mul let124 let124)))
  (let ((let138 (= let137 let124)))
  (let ((let139 (ff.mul let109 let109)))
  (let ((let140 (= let139 let109)))
  (let ((let141 (ff.mul let82 let82)))
  (let ((let142 (= let141 let82)))
  (let ((let143 (ff.mul let101 let101)))
  (let ((let144 (= let143 let101)))
  (let ((let145 (ff.mul let96 let96)))
  (let ((let146 (= let145 let96)))
  (let ((let147 (and let146 let144 let142 let140 let138 let136 let134 let132 let130 let126 let123 let118 let113 let108 let103 let99 let95 let89 let85 let81 let77)))
  (let ((let148 (= let75 let0)))
  (let ((let149 (not let148)))
  (let ((let150 (= let86 let11)))
  (let ((let151 (= let119 let46)))
  (let ((let152 (= let124 let51)))
  (let ((let153 (= let90 let17)))
  (let ((let154 (= let96 let23)))
  (let ((let155 (= let101 let28)))
  (let ((let156 (= let109 let36)))
  (let ((let157 (= let82 let7)))
  (let ((let158 (and let157 let156 let155 let154 let153 let152 let151 let150)))
  (let ((let159 (and let158 let149 let147 let74)))
  let159
))))))))))))))))))))))))))))))))))))))))))))))))))))))))))))))))))))))))))))))))))))))))))))))))))))))))))))))))))))))))))))))))))))))))))))))))))))))))))))))))
)
(check-sat)
